50
18066

537 403
931 102
671 518
38 55
44 251
120 910
313 31
363 790
510 134
636 398
387 583
768 795
169 515
674 124
414 206
257 337
996 501
622 525
760 320
125 205
868 851
6 592
30 884
178 617
570 793
259 146
59 814
227 407
430 603
394 818
224 328
839 791
853 855
722 459
179 612
130 53
426 610
241 929
790 246
936 108
81 435
73 157
684 602
15 67
850 671
416 862
833 201
381 465
580 269
472 412
